
Log started (V11.0.0) Fri May 16 18:43:17 2008

Tried aggregator 1 time.
Reduced MIP has 240 rows, 8001 columns, and 16040 nonzeros.
Presolve time =    0.06 sec.
Clique table members: 200.
MIP emphasis: balance optimality and feasibility.
MIP search method: dynamic search.
Parallel mode: none, using 1 thread.
Root relaxation solution time =    0.31 sec.

        Nodes                                         Cuts/
   Node  Left     Objective  IInf  Best Integer     Best Node    ItCnt     Gap

*     0+    0                        22089.0000      500.9003      563   97.73%
*     0+    0                          504.0000      500.9003      563    0.62%
      0     0      501.0000    62      504.0000      Fract: 6      578    0.60%
*     0+    0                          503.0000      501.0000      578    0.40%
      0     0      501.0000    64      503.0000     Covers: 1      594    0.40%
      0     2      501.0000    64      503.0000      501.0000      594    0.40%
    100    55    infeasible            503.0000      501.0000    15658    0.40%
    200    67      502.0000    57      503.0000      501.0000    45932    0.40%
    300   103    infeasible            503.0000      501.0000    80911    0.40%
    400   161      502.0000    48      503.0000      501.0000    90576    0.40%
    500   174      502.0000    45      503.0000      501.0000   112766    0.40%
    600   161      502.0000    63      503.0000      501.0000   132233    0.40%
    700   158      502.0000    54      503.0000      501.0000   139360    0.40%
    800   229      502.0000    64      503.0000      501.0000   164085    0.40%
    900   311      502.0000    51      503.0000      501.0000   175660    0.40%
   1000   395      502.0000    40      503.0000      501.0000   186644    0.40%
Elapsed time =  76.02 sec. (tree size =  2.08 MB, solutions = 3)
   1100   441      502.0000    50      503.0000      501.0000   223262    0.40%
   1200   498      502.0000    75      503.0000      501.0000   252806    0.40%
   1300   579      502.0000    20      503.0000      501.0000   258093    0.40%
   1400   653      502.0000    71      503.0000      501.0000   282156    0.40%
   1500   722      502.0000    26      503.0000      501.0086   296073    0.40%
   1600   786      502.0000    70      503.0000      501.0086   331261    0.40%
   1700   844      502.0000    55      503.0000      502.0000   348370    0.20%
   1800   906    infeasible            503.0000      502.0000   385181    0.20%
   1900   936    infeasible            503.0000      502.0000   440551    0.20%
   2000  1014      502.0000    45      503.0000      502.0000   457521    0.20%
Elapsed time = 182.22 sec. (tree size =  6.44 MB, solutions = 3)
   2100  1073      502.0000    59      503.0000      502.0000   481639    0.20%
   2200  1144      502.0000    91      503.0000      502.0000   512145    0.20%
   2300  1216      502.0000    78      503.0000      502.0000   526558    0.20%
   2400  1170    infeasible            503.0000      502.0000   669548    0.20%
   2500  1070    infeasible            503.0000      502.0000   873818    0.20%
   2600   970    infeasible            503.0000      502.0000  1070009    0.20%
   2700   870    infeasible            503.0000      502.0000  1292089    0.20%
   2800   770    infeasible            503.0000      502.0000  1509663    0.20%
   2900   670    infeasible            503.0000      502.0000  1726081    0.20%
   3000   570    infeasible            503.0000      502.0000  1934682    0.20%
Elapsed time = 599.73 sec. (tree size =  3.89 MB, solutions = 3)
   3100   470    infeasible            503.0000      502.0000  2138404    0.20%
   3200   370    infeasible            503.0000      502.0000  2317214    0.20%
   3300   270    infeasible            503.0000      502.0000  2500868    0.20%
   3400   170    infeasible            503.0000      502.0000  2685989    0.20%
   3500    70    infeasible            503.0000      502.0000  2856223    0.20%

Cover cuts applied:  264
Mixed integer rounding cuts applied:  2
Gomory fractional cuts applied:  10

Solution pool: 3 solutions saved.

MIP - Integer optimal solution:  Objective = 5.0300000000e+002
Solution time =  892.19 sec.  Iterations = 2986739  Nodes = 3571


Incumbent solution
Variable Name           Solution Value
Cmax                        503.000000
X_1_40                        1.000000
X_2_3                         1.000000
X_3_37                        1.000000
X_4_2                         1.000000
X_5_14                        1.000000
X_6_15                        1.000000
X_7_40                        1.000000
X_8_7                         1.000000
X_9_33                        1.000000
X_10_37                       1.000000
X_11_15                       1.000000
X_12_3                        1.000000
X_13_12                       1.000000
X_14_25                       1.000000
X_15_11                       1.000000
X_16_32                       1.000000
X_17_28                       1.000000
X_18_40                       1.000000
X_19_36                       1.000000
X_20_2                        1.000000
X_21_1                        1.000000
X_22_36                       1.000000
X_23_10                       1.000000
X_24_12                       1.000000
X_25_21                       1.000000
X_26_19                       1.000000
X_27_24                       1.000000
X_28_24                       1.000000
X_29_17                       1.000000
X_30_29                       1.000000
X_31_3                        1.000000
X_32_30                       1.000000
X_33_40                       1.000000
X_34_8                        1.000000
X_35_32                       1.000000
X_36_12                       1.000000
X_37_31                       1.000000
X_38_18                       1.000000
X_39_1                        1.000000
X_40_18                       1.000000
X_41_6                        1.000000
X_42_24                       1.000000
X_43_2                        1.000000
X_44_16                       1.000000
X_45_3                        1.000000
X_46_16                       1.000000
X_47_38                       1.000000
X_48_15                       1.000000
X_49_23                       1.000000
X_50_18                       1.000000
X_51_27                       1.000000
X_52_36                       1.000000
X_53_32                       1.000000
X_54_22                       1.000000
X_55_4                        1.000000
X_56_8                        1.000000
X_57_27                       1.000000
X_58_26                       1.000000
X_59_33                       1.000000
X_60_31                       1.000000
X_61_11                       1.000000
X_62_20                       1.000000
X_63_28                       1.000000
X_64_13                       1.000000
X_65_34                       1.000000
X_66_7                        1.000000
X_67_10                       1.000000
X_68_4                        1.000000
X_69_22                       1.000000
X_70_24                       1.000000
X_71_14                       1.000000
X_72_5                        1.000000
X_73_20                       1.000000
X_74_17                       1.000000
X_75_20                       1.000000
X_76_12                       1.000000
X_77_12                       1.000000
X_78_25                       1.000000
X_79_16                       1.000000
X_80_29                       1.000000
X_81_31                       1.000000
X_82_30                       1.000000
X_83_9                        1.000000
X_84_16                       1.000000
X_85_31                       1.000000
X_86_11                       1.000000
X_87_37                       1.000000
X_88_35                       1.000000
X_89_32                       1.000000
X_90_38                       1.000000
X_91_40                       1.000000
X_92_8                        1.000000
X_93_8                        1.000000
X_94_25                       1.000000
X_95_5                        1.000000
X_96_17                       1.000000
X_97_10                       1.000000
X_98_39                       1.000000
X_99_39                       1.000000
X_100_23                      1.000000
X_101_13                      1.000000
X_102_4                       1.000000
X_103_13                      1.000000
X_104_18                      1.000000
X_105_33                      1.000000
X_106_35                      1.000000
X_107_25                      1.000000
X_108_37                      1.000000
X_109_29                      1.000000
X_110_5                       1.000000
X_111_1                       1.000000
X_112_21                      1.000000
X_113_6                       1.000000
X_114_24                      1.000000
X_115_1                       1.000000
X_116_30                      1.000000
X_117_7                       1.000000
X_118_19                      1.000000
X_119_19                      1.000000
X_120_14                      1.000000
X_121_9                       1.000000
X_122_11                      1.000000
X_123_26                      1.000000
X_124_18                      1.000000
X_125_15                      1.000000
X_126_31                      1.000000
X_127_20                      1.000000
X_128_26                      1.000000
X_129_22                      1.000000
X_130_14                      1.000000
X_131_32                      1.000000
X_132_23                      1.000000
X_133_13                      1.000000
X_134_35                      1.000000
X_135_14                      1.000000
X_136_39                      1.000000
X_137_34                      1.000000
X_138_5                       1.000000
X_139_7                       1.000000
X_140_26                      1.000000
X_141_11                      1.000000
X_142_10                      1.000000
X_143_6                       1.000000
X_144_27                      1.000000
X_145_34                      1.000000
X_146_28                      1.000000
X_147_39                      1.000000
X_148_19                      1.000000
X_149_13                      1.000000
X_150_38                      1.000000
X_151_30                      1.000000
X_152_10                      1.000000
X_153_27                      1.000000
X_154_35                      1.000000
X_155_9                       1.000000
X_156_6                       1.000000
X_157_27                      1.000000
X_158_7                       1.000000
X_159_23                      1.000000
X_160_6                       1.000000
X_161_37                      1.000000
X_162_15                      1.000000
X_163_38                      1.000000
X_164_23                      1.000000
X_165_33                      1.000000
X_166_29                      1.000000
X_167_19                      1.000000
X_168_16                      1.000000
X_169_4                       1.000000
X_170_34                      1.000000
X_171_21                      1.000000
X_172_33                      1.000000
X_173_9                       1.000000
X_174_5                       1.000000
X_175_2                       1.000000
X_176_26                      1.000000
X_177_39                      1.000000
X_178_3                       1.000000
X_179_28                      1.000000
X_180_4                       1.000000
X_181_1                       1.000000
X_182_30                      1.000000
X_183_17                      1.000000
X_184_36                      1.000000
X_185_21                      1.000000
X_186_20                      1.000000
X_187_35                      1.000000
X_188_38                      1.000000
X_189_22                      1.000000
X_190_8                       1.000000
X_191_17                      1.000000
X_192_29                      1.000000
X_193_2                       1.000000
X_194_22                      1.000000
X_195_36                      1.000000
X_196_34                      1.000000
X_197_21                      1.000000
X_198_25                      1.000000
X_199_28                      1.000000
X_200_9                       1.000000
All other variables in the range 1-8001 are 0.
